/* Objective function */
min: +16.16 C1 +24.08 C2 +24.32 C3 +21.12 C4 +19 C5 +26.47 C6 +27.24 C7 +17.33 C8 +25.29 C9 +32.49 C10 +33.42 C11
 +12.25 C12 +7.93 C14 +8.31 C15 +36.12 C16 +3.07 C17 +6.44 C18 +7.56 C19 +37.37 C20 +1.22 C21 +7.51 C22
 +8.19 C23 +36.29 C24 +2.8 C25 +10.31 C26 +10.95 C27 +33.5 C28 +2.87 C29 +5.07 C30 +5.67 C31 +38.8 C32
 +3.8 C33 +8.01 C34 +7.41 C35 +38.16 C36 +12.35 C37 +4.52 C38 +4.35 C39 +48.27 C40 +11.11 C41 +3.48 C42
 +2.97 C43 +47.14 C44 +21.99 C45 +22.02 C46 +24.07 C47 +39.86 C48 +8.82 C49 +3.3 C50 +5.36 C51 +43.31 C52
 +7.93 C53 +2.07 C55 +43.75 C56 +9.34 C57 +2.25 C58 +1.11 C59 +45.43 C60 +8.31 C61 +2.07 C62 +44.43 C64
 +7.31 C65 +2.44 C66 +1.11 C67 +43.43 C68 +7.55 C69 +0.75 C70 +1.53 C71 +43.52 C72 +11.13 C73 +18.41 C74
 +19.26 C75 +25.4 C76 +17.49 C77 +23.44 C78 +24.76 C79 +23.21 C80 +11.03 C81 +18.93 C82 +19.28 C83 +25.43 C84
 +36.12 C85 +43.75 C86 +44.43 C87;

/* Constraints */
+C1 +C2 +C3 +C4 = 1;
+C5 +C6 +C7 +C8 = 1;
+C9 +C10 +C11 +C12 = 1;
+C13 +C14 +C15 +C16 = 1;
+C17 +C18 +C19 +C20 = 1;
+C21 +C22 +C23 +C24 = 1;
+C25 +C26 +C27 +C28 = 1;
+C29 +C30 +C31 +C32 = 1;
+C33 +C34 +C35 +C36 = 1;
+C37 +C38 +C39 +C40 = 1;
+C41 +C42 +C43 +C44 = 1;
+C45 +C46 +C47 +C48 = 1;
+C49 +C50 +C51 +C52 = 1;
+C53 +C54 +C55 +C56 = 1;
+C57 +C58 +C59 +C60 = 1;
+C61 +C62 +C63 +C64 = 1;
+C65 +C66 +C67 +C68 = 1;
+C69 +C70 +C71 +C72 = 1;
+C73 +C74 +C75 +C76 = 1;
+C77 +C78 +C79 +C80 = 1;
+C81 +C82 +C83 +C84 = 1;
+C85 +C86 +C87 +C88 = 1;
+0.1609 C1 +0.1164 C5 +0.1026 C9 +0.1516 C13 +0.0939 C17 +0.132 C21 +0.0687 C25 +0.093 C29 +0.2116 C33
 +0.2529 C37 +0.0868 C41 +0.0828 C45 +0.0975 C49 +0.8177 C53 +0.4115 C57 +0.3795 C61 +0.071 C65 +0.0427 C69
 +0.1043 C73 +0.0997 C77 +0.1698 C81 +0.2531 C85 >= 0.9;
+0.1609 C2 +0.1164 C6 +0.1026 C10 +0.1516 C14 +0.0939 C18 +0.132 C22 +0.0687 C26 +0.093 C30 +0.2116 C34
 +0.2529 C38 +0.0868 C42 +0.0828 C46 +0.0975 C50 +0.8177 C54 +0.4115 C58 +0.3795 C62 +0.071 C66 +0.0427 C70
 +0.1043 C74 +0.0997 C78 +0.1698 C82 +0.2531 C86 >= 0.9;
+0.1609 C3 +0.1164 C7 +0.1026 C11 +0.1516 C15 +0.0939 C19 +0.132 C23 +0.0687 C27 +0.093 C31 +0.2116 C35
 +0.2529 C39 +0.0868 C43 +0.0828 C47 +0.0975 C51 +0.8177 C55 +0.4115 C59 +0.3795 C63 +0.071 C67 +0.0427 C71
 +0.1043 C75 +0.0997 C79 +0.1698 C83 +0.2531 C87 >= 0.9;
+0.1609 C4 +0.1164 C8 +0.1026 C12 +0.1516 C16 +0.0939 C20 +0.132 C24 +0.0687 C28 +0.093 C32 +0.2116 C36
 +0.2529 C40 +0.0868 C44 +0.0828 C48 +0.0975 C52 +0.8177 C56 +0.4115 C60 +0.3795 C64 +0.071 C68 +0.0427 C72
 +0.1043 C76 +0.0997 C80 +0.1698 C84 +0.2531 C88 >= 0.9;
+0.1609 C1 +0.1164 C5 +0.1026 C9 +0.1516 C13 +0.0939 C17 +0.132 C21 +0.0687 C25 +0.093 C29 +0.2116 C33
 +0.2529 C37 +0.0868 C41 +0.0828 C45 +0.0975 C49 +0.8177 C53 +0.4115 C57 +0.3795 C61 +0.071 C65 +0.0427 C69
 +0.1043 C73 +0.0997 C77 +0.1698 C81 +0.2531 C85 <= 1.1;
+0.1609 C2 +0.1164 C6 +0.1026 C10 +0.1516 C14 +0.0939 C18 +0.132 C22 +0.0687 C26 +0.093 C30 +0.2116 C34
 +0.2529 C38 +0.0868 C42 +0.0828 C46 +0.0975 C50 +0.8177 C54 +0.4115 C58 +0.3795 C62 +0.071 C66 +0.0427 C70
 +0.1043 C74 +0.0997 C78 +0.1698 C82 +0.2531 C86 <= 1.1;
+0.1609 C3 +0.1164 C7 +0.1026 C11 +0.1516 C15 +0.0939 C19 +0.132 C23 +0.0687 C27 +0.093 C31 +0.2116 C35
 +0.2529 C39 +0.0868 C43 +0.0828 C47 +0.0975 C51 +0.8177 C55 +0.4115 C59 +0.3795 C63 +0.071 C67 +0.0427 C71
 +0.1043 C75 +0.0997 C79 +0.1698 C83 +0.2531 C87 <= 1.1;
+0.1609 C4 +0.1164 C8 +0.1026 C12 +0.1516 C16 +0.0939 C20 +0.132 C24 +0.0687 C28 +0.093 C32 +0.2116 C36
 +0.2529 C40 +0.0868 C44 +0.0828 C48 +0.0975 C52 +0.8177 C56 +0.4115 C60 +0.3795 C64 +0.071 C68 +0.0427 C72
 +0.1043 C76 +0.0997 C80 +0.1698 C84 +0.2531 C88 <= 1.1;
+C1 +C5 +C9 +C33 +C37 +C41 +C45 +C49 +C53 +C61 +C65 +C69 +C73 +C77 +C81 +C85 <= 3;
+C2 +C6 +C10 +C14 +C18 +C22 +C26 +C30 +C34 +C58 +C62 +C66 +C70 +C74 +C78 +C82 +C86 <= 3;
+C3 +C7 +C11 +C15 +C19 +C23 +C27 +C31 +C39 +C43 +C47 +C51 +C55 +C59 +C75 +C79 +C83 +C87 <= 3;
+C16 +C20 +C24 +C28 +C32 +C36 +C40 +C44 +C48 +C52 +C56 +C60 +C64 +C68 +C72 <= 3;

/* Variable bounds */
C1 <= 1;
C2 <= 1;
C3 <= 1;
C4 <= 1;
C5 <= 1;
C6 <= 1;
C7 <= 1;
C8 <= 1;
C9 <= 1;
C10 <= 1;
C11 <= 1;
C12 <= 1;
C13 <= 1;
C14 <= 1;
C15 <= 1;
C16 <= 1;
C17 <= 1;
C18 <= 1;
C19 <= 1;
C20 <= 1;
C21 <= 1;
C22 <= 1;
C23 <= 1;
C24 <= 1;
C25 <= 1;
C26 <= 1;
C27 <= 1;
C28 <= 1;
C29 <= 1;
C30 <= 1;
C31 <= 1;
C32 <= 1;
C33 <= 1;
C34 <= 1;
C35 <= 1;
C36 <= 1;
C37 <= 1;
C38 <= 1;
C39 <= 1;
C40 <= 1;
C41 <= 1;
C42 <= 1;
C43 <= 1;
C44 <= 1;
C45 <= 1;
C46 <= 1;
C47 <= 1;
C48 <= 1;
C49 <= 1;
C50 <= 1;
C51 <= 1;
C52 <= 1;
C53 <= 1;
C54 <= 1;
C55 <= 1;
C56 <= 1;
C57 <= 1;
C58 <= 1;
C59 <= 1;
C60 <= 1;
C61 <= 1;
C62 <= 1;
C63 <= 1;
C64 <= 1;
C65 <= 1;
C66 <= 1;
C67 <= 1;
C68 <= 1;
C69 <= 1;
C70 <= 1;
C71 <= 1;
C72 <= 1;
C73 <= 1;
C74 <= 1;
C75 <= 1;
C76 <= 1;
C77 <= 1;
C78 <= 1;
C79 <= 1;
C80 <= 1;
C81 <= 1;
C82 <= 1;
C83 <= 1;
C84 <= 1;
C85 <= 1;
C86 <= 1;
C87 <= 1;
C88 <= 1;

/* Integer definitions */
int C1,C2,C3,C4,C5,C6,C7,C8,C9,C10,C11,C12,C13,C14,C15,C16,C17,C18,C19,C20,C21,C22,C23,C24,C25,C26,C27,C28,C29,C30,C31,C32,C33,C34,C35,C36,C37,C38,C39,C40,C41,C42,C43,C44,C45,C46,C47,C48,C49,C50,C51,C52,C53,C54,C55,C56,C57,C58,C59,C60,C61,C62,C63,C64,C65,C66,C67,C68,C69,C70,C71,C72,C73,C74,C75,C76,C77,C78,C79,C80,C81,C82,C83,C84,C85,C86,C87,C88;
